&CONTROL
/
&SYSTEM
   ntyp             = 2
   nat              = 80
   ibrav            = 0
/
&ELECTRONS
/
&IONS
/
&CELL
/

ATOMIC_SPECIES
Ag 107.8682 None
Ni 58.6934 None

K_POINTS gamma

CELL_PARAMETERS angstrom
11.37027800000000 0.00000000000000 0.00000000000000
0.00000000000000 11.37027800000000 0.00000000000000
0.00000000000000 0.00000000000000 38.04000100000000

ATOMIC_POSITIONS angstrom
Ag 0.0000000000 0.0000000000 15.0000016663 
Ag 2.8425695000 0.0000000000 15.0000016663 
Ag 0.0000000000 2.8425695000 15.0000016663 
Ag 2.8425695000 2.8425695000 15.0000016663 
Ag 1.4212847500 1.4212847500 17.0127627872 
Ag 4.2638542500 1.4212847500 17.0127627872 
Ag 1.4212847500 4.2638542500 17.0127627872 
Ag 4.2638542500 4.2638542500 17.0127627872 
Ag 0.0000000000 0.0000000000 19.0592768010 
Ag 2.8425695000 0.0000000000 19.0592768010 
Ag 0.0000000000 2.8425695000 19.0592768010 
Ag 2.8425695000 2.8425695000 19.0592768010 
Ag 0.0000000000 0.0000000000 22.4201489294 
Ag 2.8425695000 0.0000000000 22.4201489294 
Ag 0.0000000000 2.8425695000 22.4201489294 
Ag 2.8425695000 2.8425695000 22.4201489294 
Ag 0.0000000000 5.6851390000 15.0000016663 
Ag 2.8425695000 5.6851390000 15.0000016663 
Ag 0.0000000000 8.5277085000 15.0000016663 
Ag 2.8425695000 8.5277085000 15.0000016663 
Ag 1.4212847500 7.1064237500 17.0127627872 
Ag 4.2638542500 7.1064237500 17.0127627872 
Ag 1.4212847500 9.9489932500 17.0127627872 
Ag 4.2638542500 9.9489932500 17.0127627872 
Ag 0.0000000000 5.6851390000 19.0592768010 
Ag 2.8425695000 5.6851390000 19.0592768010 
Ag 0.0000000000 8.5277085000 19.0592768010 
Ag 2.8425695000 8.5277085000 19.0592768010 
Ag 0.0000000000 5.6851390000 22.4201489294 
Ag 2.8425695000 5.6851390000 22.4201489294 
Ag 0.0000000000 8.5277085000 22.4201489294 
Ag 2.8425695000 8.5277085000 22.4201489294 
Ag 5.6851390000 0.0000000000 15.0000016663 
Ag 8.5277085000 0.0000000000 15.0000016663 
Ag 5.6851390000 2.8425695000 15.0000016663 
Ag 8.5277085000 2.8425695000 15.0000016663 
Ag 7.1064237500 1.4212847500 17.0127627872 
Ag 9.9489932500 1.4212847500 17.0127627872 
Ag 7.1064237500 4.2638542500 17.0127627872 
Ag 9.9489932500 4.2638542500 17.0127627872 
Ag 5.6851390000 0.0000000000 19.0592768010 
Ag 8.5277085000 0.0000000000 19.0592768010 
Ag 5.6851390000 2.8425695000 19.0592768010 
Ag 8.5277085000 2.8425695000 19.0592768010 
Ag 5.6851390000 0.0000000000 22.4201489294 
Ag 8.5277085000 0.0000000000 22.4201489294 
Ag 5.6851390000 2.8425695000 22.4201489294 
Ag 8.5277085000 2.8425695000 22.4201489294 
Ag 5.6851390000 5.6851390000 15.0000016663 
Ag 8.5277085000 5.6851390000 15.0000016663 
Ag 5.6851390000 8.5277085000 15.0000016663 
Ag 8.5277085000 8.5277085000 15.0000016663 
Ag 7.1064237500 7.1064237500 17.0127627872 
Ag 9.9489932500 7.1064237500 17.0127627872 
Ag 7.1064237500 9.9489932500 17.0127627872 
Ag 9.9489932500 9.9489932500 17.0127627872 
Ag 5.6851390000 5.6851390000 19.0592768010 
Ag 8.5277085000 5.6851390000 19.0592768010 
Ag 5.6851390000 8.5277085000 19.0592768010 
Ag 8.5277085000 8.5277085000 19.0592768010 
Ag 5.6851390000 5.6851390000 22.4201489294 
Ag 8.5277085000 5.6851390000 22.4201489294 
Ag 5.6851390000 8.5277085000 22.4201489294 
Ag 8.5277085000 8.5277085000 22.4201489294 
Ni 1.4212847500 1.4212847500 20.7605397658 
Ni 4.2638542500 1.4212847500 20.7605397658 
Ni 1.4212847500 4.2638542500 20.7605397658 
Ni 4.2638542500 4.2638542500 20.7605397658 
Ni 1.4212847500 7.1064237500 20.7605397658 
Ni 4.2638542500 7.1064237500 20.7605397658 
Ni 1.4212847500 9.9489932500 20.7605397658 
Ni 4.2638542500 9.9489932500 20.7605397658 
Ni 7.1064237500 1.4212847500 20.7605397658 
Ni 9.9489932500 1.4212847500 20.7605397658 
Ni 7.1064237500 4.2638542500 20.7605397658 
Ni 9.9489932500 4.2638542500 20.7605397658 
Ni 7.1064237500 7.1064237500 20.7605397658 
Ni 9.9489932500 7.1064237500 20.7605397658 
Ni 7.1064237500 9.9489932500 20.7605397658 
Ni 9.9489932500 9.9489932500 20.7605397658 

