&CONTROL
   calculation = 'relax'
   max_seconds = 216000
   restart_mode = 'restart'
   verbosity        = 'high'
   etot_conv_thr    = 2.0e-4 
   forc_conv_thr    = 1.0e-4  
   tstress          = .true.
   tprnfor          = .true.
   pseudo_dir       = '../pseudo'
   outdir = '../out/'
   prefix = 'alloy_100_removed'
/
&SYSTEM
   ecutwfc          = 98
   ecutrho          = 1176
   occupations      = 'smearing'
   degauss          = 0.022
   smearing         = 'cold'
   ntyp             = 2
   nspin            = 2
   nat              = 79
   ibrav            = 0
   starting_magnetization(1) = 0.1
   starting_magnetization(2) = 0.2778
/
&ELECTRONS
   electron_maxstep = 120
   conv_thr         = 4e-9
   mixing_mode      = 'local-TF'
/
&IONS
   ion_dynamics='bfgs'
/
&CELL
/

ATOMIC_SPECIES
Ag 107.8682 Ag.upf
Ni 58.6934 Ni.upf
K_POINTS automatic
4 4 1  0 0 0

CELL_PARAMETERS angstrom
11.37027800000000 0.00000000000000 0.00000000000000
0.00000000000000 11.37027800000000 0.00000000000000
0.00000000000000 0.00000000000000 38.04000100000000

ATOMIC_POSITIONS angstrom
Ag 0.0000000000 0.0000000000 15.0000016663   0 0 0
Ag 2.8425695000 0.0000000000 15.0000016663   0 0 0
Ag 0.0000000000 2.8425695000 15.0000016663   0 0 0
Ag 2.8425695000 2.8425695000 15.0000016663   0 0 0
Ag 1.4212847500 1.4212847500 17.0127627872
Ag 4.2638542500 1.4212847500 17.0127627872 
Ag 1.4212847500 4.2638542500 17.0127627872 
Ag 4.2638542500 4.2638542500 17.0127627872 
Ag 0.0000000000 0.0000000000 19.0592768010 
Ag 2.8425695000 0.0000000000 19.0592768010 
Ag 0.0000000000 2.8425695000 19.0592768010 
Ag 2.8425695000 2.8425695000 19.0592768010 
Ag 0.0000000000 0.0000000000 22.4201489294 
Ag 2.8425695000 0.0000000000 22.4201489294 
Ag 0.0000000000 2.8425695000 22.4201489294 
Ag 2.8425695000 2.8425695000 22.4201489294 
Ag 0.0000000000 5.6851390000 15.0000016663   0 0 0
Ag 2.8425695000 5.6851390000 15.0000016663   0 0 0
Ag 0.0000000000 8.5277085000 15.0000016663   0 0 0
Ag 2.8425695000 8.5277085000 15.0000016663   0 0 0
Ag 1.4212847500 7.1064237500 17.0127627872 
Ag 4.2638542500 7.1064237500 17.0127627872 
Ag 1.4212847500 9.9489932500 17.0127627872 
Ag 4.2638542500 9.9489932500 17.0127627872 
Ag 0.0000000000 5.6851390000 19.0592768010 
Ag 2.8425695000 5.6851390000 19.0592768010 
Ag 0.0000000000 8.5277085000 19.0592768010 
Ag 2.8425695000 8.5277085000 19.0592768010 
Ag 0.0000000000 5.6851390000 22.4201489294 
Ag 2.8425695000 5.6851390000 22.4201489294 
Ag 0.0000000000 8.5277085000 22.4201489294 
Ag 2.8425695000 8.5277085000 22.4201489294 
Ag 5.6851390000 0.0000000000 15.0000016663   0 0 0
Ag 8.5277085000 0.0000000000 15.0000016663   0 0 0
Ag 5.6851390000 2.8425695000 15.0000016663   0 0 0
Ag 8.5277085000 2.8425695000 15.0000016663   0 0 0
Ag 7.1064237500 1.4212847500 17.0127627872 
Ag 9.9489932500 1.4212847500 17.0127627872 
Ag 7.1064237500 4.2638542500 17.0127627872 
Ag 9.9489932500 4.2638542500 17.0127627872 
Ag 5.6851390000 0.0000000000 19.0592768010 
Ag 8.5277085000 0.0000000000 19.0592768010 
Ag 5.6851390000 2.8425695000 19.0592768010 
Ag 8.5277085000 2.8425695000 19.0592768010 
Ag 5.6851390000 0.0000000000 22.4201489294 
Ag 8.5277085000 0.0000000000 22.4201489294 
Ag 5.6851390000 2.8425695000 22.4201489294 
Ag 8.5277085000 2.8425695000 22.4201489294 
Ag 5.6851390000 5.6851390000 15.0000016663   0 0 0
Ag 8.5277085000 5.6851390000 15.0000016663   0 0 0
Ag 5.6851390000 8.5277085000 15.0000016663   0 0 0
Ag 8.5277085000 8.5277085000 15.0000016663   0 0 0
Ag 7.1064237500 7.1064237500 17.0127627872 
Ag 9.9489932500 7.1064237500 17.0127627872 
Ag 7.1064237500 9.9489932500 17.0127627872 
Ag 9.9489932500 9.9489932500 17.0127627872 
Ag 5.6851390000 5.6851390000 19.0592768010 
Ag 8.5277085000 5.6851390000 19.0592768010 
Ag 5.6851390000 8.5277085000 19.0592768010 
Ag 8.5277085000 8.5277085000 19.0592768010 
Ag 5.6851390000 5.6851390000 22.4201489294 
Ag 8.5277085000 5.6851390000 22.4201489294 
Ag 5.6851390000 8.5277085000 22.4201489294 
Ni 1.4212847500 1.4212847500 20.7605397658 
Ni 4.2638542500 1.4212847500 20.7605397658 
Ni 1.4212847500 4.2638542500 20.7605397658 
Ni 4.2638542500 4.2638542500 20.7605397658 
Ni 1.4212847500 7.1064237500 20.7605397658 
Ni 4.2638542500 7.1064237500 20.7605397658 
Ni 1.4212847500 9.9489932500 20.7605397658 
Ni 4.2638542500 9.9489932500 20.7605397658 
Ni 7.1064237500 1.4212847500 20.7605397658 
Ni 9.9489932500 1.4212847500 20.7605397658 
Ni 7.1064237500 4.2638542500 20.7605397658 
Ni 9.9489932500 4.2638542500 20.7605397658 
Ni 7.1064237500 7.1064237500 20.7605397658 
Ni 9.9489932500 7.1064237500 20.7605397658 
Ni 7.1064237500 9.9489932500 20.7605397658 
Ni 9.9489932500 9.9489932500 20.7605397658 

