&CONTROL
   max_seconds = 216000
   calculation = 'relax'
   restart_mode = 'restart'
   verbosity        = 'high'
   etot_conv_thr    = 2.0e-4 
   forc_conv_thr    = 1.0e-4  
   tstress          = .true.
   tprnfor          = .true.
   pseudo_dir       = '../pseudo'
   outdir = '../out/'
   prefix = 'pure_100'
/
&SYSTEM
   ecutwfc          = 98
   ecutrho          = 1176
   occupations      = 'smearing'
   degauss          = 0.022
   smearing         = 'cold'
   ntyp             = 1
   nat              = 20
   ibrav            = 0
/
&ELECTRONS
   electron_maxstep = 120
   conv_thr         = 4e-9
   mixing_mode      = 'local-TF'
/
&IONS
   ion_dynamics='bfgs'
/
&CELL
/

ATOMIC_SPECIES
Ag 107.8682 Ag.upf

K_POINTS automatic
4 4 1  0 0 0

CELL_PARAMETERS angstrom
5.68513852073984 0.00000000000000 0.00000000000000
0.00000000000000 5.68513852073984 0.00000000000000
0.00000000000000 0.00000000000000 38.04000000000000

ATOMIC_POSITIONS angstrom
Ag 0.0000000000 0.0000000000 15.0000000000  0 0 0
Ag 2.8425692604 0.0000000000 15.0000000000  0 0 0
Ag 0.0000000000 2.8425692604 15.0000000000  0 0 0
Ag 2.8425692604 2.8425692604 15.0000000000  0 0 0
Ag 1.4212845832 1.4212845832 16.9764585400 
Ag 4.2638539376 1.4212845832 16.9764585400 
Ag 1.4212845832 4.2638539376 16.9764585400 
Ag 4.2638539376 4.2638539376 16.9764585400 
Ag 0.0000000000 0.0000000000 19.0200533193 
Ag 2.8425692604 0.0000000000 19.0200534133 
Ag 0.0000000000 2.8425692604 19.0200534133 
Ag 2.8425692604 2.8425692604 19.0200534603 
Ag 1.4212846302 1.4212846302 21.0642954527 
Ag 4.2638538906 1.4212846302 21.0642954527 
Ag 1.4212846302 4.2638538906 21.0642954527 
Ag 4.2638538906 4.2638538906 21.0642954527 
Ag 0.0000000000 -0.0000000000 23.0581203745 
Ag 2.8425692604 -0.0000000000 23.0581202383 
Ag -0.0000000000 2.8425692604 23.0581202383 
Ag 2.8425692604 2.8425692604 23.0581202394 

