&CONTROL
/
&SYSTEM
   ntyp             = 1
   nat              = 80
   ibrav            = 0
/
&ELECTRONS
/
&IONS
/
&CELL
/

ATOMIC_SPECIES
Ag 107.8682 None

K_POINTS gamma

CELL_PARAMETERS angstrom
11.37027800000000 0.00000000000000 0.00000000000000
0.00000000000000 11.37027800000000 0.00000000000000
0.00000000000000 0.00000000000000 38.04000100000000

ATOMIC_POSITIONS angstrom
Ag 0.0000000000 0.0000000000 15.0000016663 
Ag 2.8425695000 0.0000000000 15.0000016663 
Ag 0.0000000000 2.8425695000 15.0000016663 
Ag 2.8425695000 2.8425695000 15.0000016663 
Ag 1.4212847500 1.4212847500 17.0140599513 
Ag 4.2638542500 1.4212847500 17.0140599513 
Ag 1.4212847500 4.2638542500 17.0140599513 
Ag 4.2638542500 4.2638542500 17.0140599513 
Ag 0.0000000000 0.0000000000 19.0655838332 
Ag 2.8425695000 0.0000000000 19.0655838332 
Ag 0.0000000000 2.8425695000 19.0655838332 
Ag 2.8425695000 2.8425695000 19.0655838332 
Ag 1.4212847500 1.4212847500 21.1173549751 
Ag 4.2638542500 1.4212847500 21.1173549751 
Ag 1.4212847500 4.2638542500 21.1173549751 
Ag 4.2638542500 4.2638542500 21.1173549751 
Ag 0.0000000000 0.0000000000 23.1319648401 
Ag 2.8425695000 0.0000000000 23.1319648401 
Ag 0.0000000000 2.8425695000 23.1319648401 
Ag 2.8425695000 2.8425695000 23.1319648401 
Ag 0.0000000000 5.6851390000 15.0000016663 
Ag 2.8425695000 5.6851390000 15.0000016663 
Ag 0.0000000000 8.5277085000 15.0000016663 
Ag 2.8425695000 8.5277085000 15.0000016663 
Ag 1.4212847500 7.1064237500 17.0140599513 
Ag 4.2638542500 7.1064237500 17.0140599513 
Ag 1.4212847500 9.9489932500 17.0140599513 
Ag 4.2638542500 9.9489932500 17.0140599513 
Ag 0.0000000000 5.6851390000 19.0655838332 
Ag 2.8425695000 5.6851390000 19.0655838332 
Ag 0.0000000000 8.5277085000 19.0655838332 
Ag 2.8425695000 8.5277085000 19.0655838332 
Ag 1.4212847500 7.1064237500 21.1173549751 
Ag 4.2638542500 7.1064237500 21.1173549751 
Ag 1.4212847500 9.9489932500 21.1173549751 
Ag 4.2638542500 9.9489932500 21.1173549751 
Ag 0.0000000000 5.6851390000 23.1319648401 
Ag 2.8425695000 5.6851390000 23.1319648401 
Ag 0.0000000000 8.5277085000 23.1319648401 
Ag 2.8425695000 8.5277085000 23.1319648401 
Ag 5.6851390000 0.0000000000 15.0000016663 
Ag 8.5277085000 0.0000000000 15.0000016663 
Ag 5.6851390000 2.8425695000 15.0000016663 
Ag 8.5277085000 2.8425695000 15.0000016663 
Ag 7.1064237500 1.4212847500 17.0140599513 
Ag 9.9489932500 1.4212847500 17.0140599513 
Ag 7.1064237500 4.2638542500 17.0140599513 
Ag 9.9489932500 4.2638542500 17.0140599513 
Ag 5.6851390000 0.0000000000 19.0655838332 
Ag 8.5277085000 0.0000000000 19.0655838332 
Ag 5.6851390000 2.8425695000 19.0655838332 
Ag 8.5277085000 2.8425695000 19.0655838332 
Ag 7.1064237500 1.4212847500 21.1173549751 
Ag 9.9489932500 1.4212847500 21.1173549751 
Ag 7.1064237500 4.2638542500 21.1173549751 
Ag 9.9489932500 4.2638542500 21.1173549751 
Ag 5.6851390000 0.0000000000 23.1319648401 
Ag 8.5277085000 0.0000000000 23.1319648401 
Ag 5.6851390000 2.8425695000 23.1319648401 
Ag 8.5277085000 2.8425695000 23.1319648401 
Ag 5.6851390000 5.6851390000 15.0000016663 
Ag 8.5277085000 5.6851390000 15.0000016663 
Ag 5.6851390000 8.5277085000 15.0000016663 
Ag 8.5277085000 8.5277085000 15.0000016663 
Ag 7.1064237500 7.1064237500 17.0140599513 
Ag 9.9489932500 7.1064237500 17.0140599513 
Ag 7.1064237500 9.9489932500 17.0140599513 
Ag 9.9489932500 9.9489932500 17.0140599513 
Ag 5.6851390000 5.6851390000 19.0655838332 
Ag 8.5277085000 5.6851390000 19.0655838332 
Ag 5.6851390000 8.5277085000 19.0655838332 
Ag 8.5277085000 8.5277085000 19.0655838332 
Ag 7.1064237500 7.1064237500 21.1173549751 
Ag 9.9489932500 7.1064237500 21.1173549751 
Ag 7.1064237500 9.9489932500 21.1173549751 
Ag 9.9489932500 9.9489932500 21.1173549751 
Ag 5.6851390000 5.6851390000 23.1319648401 
Ag 8.5277085000 5.6851390000 23.1319648401 
Ag 5.6851390000 8.5277085000 23.1319648401 
Ag 8.5277085000 8.5277085000 23.1319648401 

