&CONTROL
/
&SYSTEM
   ntyp             = 2
   nat              = 80
   ibrav            = 0
/
&ELECTRONS
/
&IONS
/
&CELL
/

ATOMIC_SPECIES
Ag 107.8682 None
Ni 58.6934 None

K_POINTS gamma

CELL_PARAMETERS angstrom
11.36465826549904 0.00000000000000 0.00000000000000
0.00000000000000 11.36465826549904 0.00000000000000
0.00000000000000 0.00000000000000 38.03602692540212

ATOMIC_POSITIONS angstrom
Ag 0.0000000000 0.0000000000 15.0000000000  0 0 0
Ag 2.8411645664 0.0000000000 15.0000000000  0 0 0
Ag 5.6823291327 0.0000000000 15.0000000000  0 0 0
Ag 8.5234936991 0.0000000000 15.0000000000  0 0 0
Ag 0.0000000000 2.8411645664 15.0000000000  0 0 0
Ag 2.8411645664 2.8411645664 15.0000000000  0 0 0
Ag 5.6823291327 2.8411645664 15.0000000000  0 0 0
Ag 8.5234936991 2.8411645664 15.0000000000  0 0 0
Ag 0.0000000000 5.6823291327 15.0000000000  0 0 0
Ag 2.8411645664 5.6823291327 15.0000000000  0 0 0
Ag 5.6823291327 5.6823291327 15.0000000000  0 0 0
Ag 8.5234936991 5.6823291327 15.0000000000  0 0 0
Ag 0.0000000000 8.5234936991 15.0000000000  0 0 0
Ag 2.8411645664 8.5234936991 15.0000000000  0 0 0
Ag 5.6823291327 8.5234936991 15.0000000000  0 0 0
Ag 8.5234936991 8.5234936991 15.0000000000  0 0 0
Ag 1.4205822832 1.4205822832 17.0090067314 
Ag 4.2617468496 1.4205822832 17.0090067314 
Ag 7.1029114159 1.4205822832 17.0090067314 
Ag 9.9440759823 1.4205822832 17.0090067314 
Ag 1.4205822832 4.2617468496 17.0090067314 
Ag 4.2617468496 4.2617468496 17.0090067314 
Ag 7.1029114159 4.2617468496 17.0090067314 
Ag 9.9440759823 4.2617468496 17.0090067314 
Ag 1.4205822832 7.1029114159 17.0090067314 
Ag 4.2617468496 7.1029114159 17.0090067314 
Ag 7.1029114159 7.1029114159 17.0090067314 
Ag 9.9440759823 7.1029114159 17.0090067314 
Ag 1.4205822832 9.9440759823 17.0090067314 
Ag 4.2617468496 9.9440759823 17.0090067314 
Ag 7.1029114159 9.9440759823 17.0090067314 
Ag 9.9440759823 9.9440759823 17.0090067314 
Ag 0.0000000000 0.0000000000 19.0180134627 
Ag 2.8411645664 0.0000000000 19.0180134627 
Ag 5.6823291327 0.0000000000 19.0180134627 
Ag 8.5234936991 0.0000000000 19.0180134627 
Ag 0.0000000000 2.8411645664 19.0180134627 
Ag 2.8411645664 2.8411645664 19.0180134627 
Ag 5.6823291327 2.8411645664 19.0180134627 
Ag 8.5234936991 2.8411645664 19.0180134627 
Ag 0.0000000000 5.6823291327 19.0180134627 
Ag 2.8411645664 5.6823291327 19.0180134627 
Ag 5.6823291327 5.6823291327 19.0180134627 
Ag 8.5234936991 5.6823291327 19.0180134627 
Ag 0.0000000000 8.5234936991 19.0180134627 
Ag 2.8411645664 8.5234936991 19.0180134627 
Ag 5.6823291327 8.5234936991 19.0180134627 
Ag 8.5234936991 8.5234936991 19.0180134627 
Ni 1.4205822832 1.4205822832 21.0270201941 
Ag 4.2617468496 1.4205822832 21.0270201941 
Ag 7.1029114159 1.4205822832 21.0270201941 
Ag 9.9440759823 1.4205822832 21.0270201941 
Ag 1.4205822832 4.2617468496 21.0270201941 
Ag 4.2617468496 4.2617468496 21.0270201941 
Ag 7.1029114159 4.2617468496 21.0270201941 
Ag 9.9440759823 4.2617468496 21.0270201941 
Ag 1.4205822832 7.1029114159 21.0270201941 
Ag 4.2617468496 7.1029114159 21.0270201941 
Ag 7.1029114159 7.1029114159 21.0270201941 
Ag 9.9440759823 7.1029114159 21.0270201941 
Ag 1.4205822832 9.9440759823 21.0270201941 
Ag 4.2617468496 9.9440759823 21.0270201941 
Ag 7.1029114159 9.9440759823 21.0270201941 
Ag 9.9440759823 9.9440759823 21.0270201941 
Ag 0.0000000000 0.0000000000 23.0360269254 
Ag 2.8411645664 0.0000000000 23.0360269254 
Ag 5.6823291327 0.0000000000 23.0360269254 
Ag 8.5234936991 0.0000000000 23.0360269254 
Ag 0.0000000000 2.8411645664 23.0360269254 
Ag 2.8411645664 2.8411645664 23.0360269254 
Ag 5.6823291327 2.8411645664 23.0360269254 
Ag 8.5234936991 2.8411645664 23.0360269254 
Ag 0.0000000000 5.6823291327 23.0360269254 
Ag 2.8411645664 5.6823291327 23.0360269254 
Ag 5.6823291327 5.6823291327 23.0360269254 
Ag 8.5234936991 5.6823291327 23.0360269254 
Ag 0.0000000000 8.5234936991 23.0360269254 
Ag 2.8411645664 8.5234936991 23.0360269254 
Ag 5.6823291327 8.5234936991 23.0360269254 
Ag 8.5234936991 8.5234936991 23.0360269254 

