&CONTROL
   calculation = 'relax'
   max_seconds = 255000
   restart_mode = 'restart'
   verbosity        = 'high'
   etot_conv_thr    = 2.0e-4 
   forc_conv_thr    = 1.0e-4  
   tstress          = .true.
   tprnfor          = .true.
   pseudo_dir       = '../pseudo'
   outdir = '../out/'
   prefix = 'dilute_removed_1'
/
&SYSTEM
   ecutwfc          = 98
   ecutrho          = 1176
   occupations      = 'smearing'
   degauss          = 0.022
   smearing         = 'cold'
   ntyp             = 2
   nspin            = 2
   nat              = 79
   ibrav            = 0
   starting_magnetization(1) = 0.1
   starting_magnetization(2) = 0.2778
/
&ELECTRONS
   electron_maxstep = 120
   conv_thr         = 4e-9
   mixing_mode      = 'local-TF'
/
&IONS
   ion_dynamics='bfgs'
/
&CELL
/

ATOMIC_SPECIES
Ag 107.8682 Ag.upf
Ni 58.6934 Ni.upf
K_POINTS automatic
4 4 1  0 0 0

CELL_PARAMETERS angstrom
11.36475000000000 0.00000000000000 0.00000000000000
0.00000000000000 11.36475000000000 0.00000000000000
0.00000000000000 0.00000000000000 38.03609200000000

ATOMIC_POSITIONS angstrom
Ag 0.0000000000 0.0000000000 15.0000007241 0 0 0
Ag 2.8411875000 0.0000000000 15.0000007241 0 0 0
Ag 5.6823750000 0.0000000000 15.0000007241 0 0 0
Ag 8.5235625000 0.0000000000 15.0000007241 0 0 0
Ag 0.0000000000 2.8411875000 15.0000007241 0 0 0
Ag 2.8411875000 2.8411875000 15.0000007241 0 0 0
Ag 5.6823750000 2.8411875000 15.0000007241 0 0 0
Ag 8.5235625000 2.8411875000 15.0000007241 0 0 0
Ag 0.0000000000 5.6823750000 15.0000007241 0 0 0
Ag 2.8411875000 5.6823750000 15.0000007241 0 0 0
Ag 5.6823750000 5.6823750000 15.0000007241 0 0 0
Ag 8.5235625000 5.6823750000 15.0000007241 0 0 0
Ag 0.0000000000 8.5235625000 15.0000007241 0 0 0
Ag 2.8411875000 8.5235625000 15.0000007241 0 0 0
Ag 5.6823750000 8.5235625000 15.0000007241 0 0 0
Ag 8.5235625000 8.5235625000 15.0000007241 0 0 0
Ag 1.4205937500 1.4205937500 17.0090214603 
Ag 4.2617812500 1.4205937500 17.0090214603 
Ag 7.1029687500 1.4205937500 17.0090214603 
Ag 9.9441562500 1.4205937500 17.0090214603 
Ag 1.4205937500 4.2617812500 17.0090214603 
Ag 4.2617812500 4.2617812500 17.0090214603 
Ag 7.1029687500 4.2617812500 17.0090214603 
Ag 9.9441562500 4.2617812500 17.0090214603 
Ag 1.4205937500 7.1029687500 17.0090214603 
Ag 4.2617812500 7.1029687500 17.0090214603 
Ag 7.1029687500 7.1029687500 17.0090214603 
Ag 9.9441562500 7.1029687500 17.0090214603 
Ag 1.4205937500 9.9441562500 17.0090214603 
Ag 4.2617812500 9.9441562500 17.0090214603 
Ag 7.1029687500 9.9441562500 17.0090214603 
Ag 9.9441562500 9.9441562500 17.0090214603 
Ag 0.0000000000 0.0000000000 19.0180460000 
Ag 2.8411875000 0.0000000000 19.0180460000 
Ag 5.6823750000 0.0000000000 19.0180460000 
Ag 8.5235625000 0.0000000000 19.0180460000 
Ag 0.0000000000 2.8411875000 19.0180460000 
Ag 2.8411875000 2.8411875000 19.0180460000 
Ag 5.6823750000 2.8411875000 19.0180460000 
Ag 8.5235625000 2.8411875000 19.0180460000 
Ag 0.0000000000 5.6823750000 19.0180460000 
Ag 2.8411875000 5.6823750000 19.0180460000 
Ag 5.6823750000 5.6823750000 19.0180460000 
Ag 8.5235625000 5.6823750000 19.0180460000 
Ag 0.0000000000 8.5235625000 19.0180460000 
Ag 2.8411875000 8.5235625000 19.0180460000 
Ag 5.6823750000 8.5235625000 19.0180460000 
Ag 8.5235625000 8.5235625000 19.0180460000 
Ag 4.2617812500 1.4205937500 21.0270705397 
Ag 7.1029687500 1.4205937500 21.0270705397 
Ag 9.9441562500 1.4205937500 21.0270705397 
Ag 1.4205937500 4.2617812500 21.0270705397 
Ag 4.2617812500 4.2617812500 21.0270705397 
Ag 7.1029687500 4.2617812500 21.0270705397 
Ag 9.9441562500 4.2617812500 21.0270705397 
Ag 1.4205937500 7.1029687500 21.0270705397 
Ag 4.2617812500 7.1029687500 21.0270705397 
Ag 7.1029687500 7.1029687500 21.0270705397 
Ag 9.9441562500 7.1029687500 21.0270705397 
Ag 1.4205937500 9.9441562500 21.0270705397 
Ag 4.2617812500 9.9441562500 21.0270705397 
Ag 7.1029687500 9.9441562500 21.0270705397 
Ag 9.9441562500 9.9441562500 21.0270705397 
Ag 0.0000000000 0.0000000000 23.0360912759 
Ag 2.8411875000 0.0000000000 23.0360912759 
Ag 5.6823750000 0.0000000000 23.0360912759 
Ag 8.5235625000 0.0000000000 23.0360912759 
Ag 0.0000000000 2.8411875000 23.0360912759 
Ag 5.6823750000 2.8411875000 23.0360912759 
Ag 8.5235625000 2.8411875000 23.0360912759 
Ag 0.0000000000 5.6823750000 23.0360912759 
Ag 2.8411875000 5.6823750000 23.0360912759 
Ag 5.6823750000 5.6823750000 23.0360912759 
Ag 8.5235625000 5.6823750000 23.0360912759 
Ag 0.0000000000 8.5235625000 23.0360912759 
Ag 2.8411875000 8.5235625000 23.0360912759 
Ag 5.6823750000 8.5235625000 23.0360912759 
Ag 8.5235625000 8.5235625000 23.0360912759 
Ni 1.4205937500 1.4205937500 21.0270705397 
