&CONTROL
/
&SYSTEM
   ntyp             = 2
   nat              = 79
   ibrav            = 0
/
&ELECTRONS
/
&IONS
/
&CELL
/

ATOMIC_SPECIES
Ag 107.8682 None
Ni 58.6934 None

K_POINTS gamma

CELL_PARAMETERS angstrom
11.36475000000000 0.00000000000000 0.00000000000000
0.00000000000000 11.36475000000000 0.00000000000000
0.00000000000000 0.00000000000000 38.03609200000000

ATOMIC_POSITIONS angstrom
Ag 0.0000000000 0.0000000000 15.0000007241 
Ag 2.8411875000 0.0000000000 15.0000007241 
Ag 5.6823750000 0.0000000000 15.0000007241 
Ag 8.5235625000 0.0000000000 15.0000007241 
Ag 0.0000000000 2.8411875000 15.0000007241 
Ag 2.8411875000 2.8411875000 15.0000007241 
Ag 5.6823750000 2.8411875000 15.0000007241 
Ag 8.5235625000 2.8411875000 15.0000007241 
Ag 0.0000000000 5.6823750000 15.0000007241 
Ag 2.8411875000 5.6823750000 15.0000007241 
Ag 5.6823750000 5.6823750000 15.0000007241 
Ag 8.5235625000 5.6823750000 15.0000007241 
Ag 0.0000000000 8.5235625000 15.0000007241 
Ag 2.8411875000 8.5235625000 15.0000007241 
Ag 5.6823750000 8.5235625000 15.0000007241 
Ag 8.5235625000 8.5235625000 15.0000007241 
Ag 1.4205937500 1.4205937500 17.0090214603 
Ag 4.2617812500 1.4205937500 17.0090214603 
Ag 7.1029687500 1.4205937500 17.0090214603 
Ag 9.9441562500 1.4205937500 17.0090214603 
Ag 1.4205937500 4.2617812500 17.0090214603 
Ag 4.2617812500 4.2617812500 17.0090214603 
Ag 7.1029687500 4.2617812500 17.0090214603 
Ag 9.9441562500 4.2617812500 17.0090214603 
Ag 1.4205937500 7.1029687500 17.0090214603 
Ag 4.2617812500 7.1029687500 17.0090214603 
Ag 7.1029687500 7.1029687500 17.0090214603 
Ag 9.9441562500 7.1029687500 17.0090214603 
Ag 1.4205937500 9.9441562500 17.0090214603 
Ag 4.2617812500 9.9441562500 17.0090214603 
Ag 7.1029687500 9.9441562500 17.0090214603 
Ag 9.9441562500 9.9441562500 17.0090214603 
Ag 0.0000000000 0.0000000000 19.0180460000 
Ag 2.8411875000 0.0000000000 19.0180460000 
Ag 5.6823750000 0.0000000000 19.0180460000 
Ag 8.5235625000 0.0000000000 19.0180460000 
Ag 0.0000000000 2.8411875000 19.0180460000 
Ag 2.8411875000 2.8411875000 19.0180460000 
Ag 5.6823750000 2.8411875000 19.0180460000 
Ag 8.5235625000 2.8411875000 19.0180460000 
Ag 0.0000000000 5.6823750000 19.0180460000 
Ag 2.8411875000 5.6823750000 19.0180460000 
Ag 5.6823750000 5.6823750000 19.0180460000 
Ag 8.5235625000 5.6823750000 19.0180460000 
Ag 0.0000000000 8.5235625000 19.0180460000 
Ag 2.8411875000 8.5235625000 19.0180460000 
Ag 5.6823750000 8.5235625000 19.0180460000 
Ag 8.5235625000 8.5235625000 19.0180460000 
Ag 4.2617812500 1.4205937500 21.0270705397 
Ag 7.1029687500 1.4205937500 21.0270705397 
Ag 9.9441562500 1.4205937500 21.0270705397 
Ag 1.4205937500 4.2617812500 21.0270705397 
Ag 4.2617812500 4.2617812500 21.0270705397 
Ag 7.1029687500 4.2617812500 21.0270705397 
Ag 9.9441562500 4.2617812500 21.0270705397 
Ag 1.4205937500 7.1029687500 21.0270705397 
Ag 4.2617812500 7.1029687500 21.0270705397 
Ag 7.1029687500 7.1029687500 21.0270705397 
Ag 9.9441562500 7.1029687500 21.0270705397 
Ag 1.4205937500 9.9441562500 21.0270705397 
Ag 4.2617812500 9.9441562500 21.0270705397 
Ag 7.1029687500 9.9441562500 21.0270705397 
Ag 9.9441562500 9.9441562500 21.0270705397 
Ag 0.0000000000 0.0000000000 23.0360912759 
Ag 2.8411875000 0.0000000000 23.0360912759 
Ag 5.6823750000 0.0000000000 23.0360912759 
Ag 8.5235625000 0.0000000000 23.0360912759 
Ag 0.0000000000 2.8411875000 23.0360912759 
Ag 2.8411875000 2.8411875000 23.0360912759 
Ag 8.5235625000 2.8411875000 23.0360912759 
Ag 0.0000000000 5.6823750000 23.0360912759 
Ag 2.8411875000 5.6823750000 23.0360912759 
Ag 5.6823750000 5.6823750000 23.0360912759 
Ag 8.5235625000 5.6823750000 23.0360912759 
Ag 0.0000000000 8.5235625000 23.0360912759 
Ag 2.8411875000 8.5235625000 23.0360912759 
Ag 5.6823750000 8.5235625000 23.0360912759 
Ag 8.5235625000 8.5235625000 23.0360912759 
Ni 1.4205937500 1.4205937500 21.0270705397 

